
  15    0


   0   8 2 4 5 6 11 12 13 14 
   5   2 10 3 
   1   1 7 
   2   1 9 
   7   1 8 
   8   1 7 
   4   1 15
   2   1 15
   7   1 15
   7   1 15
   5   1 15
   4   1 15
   4   1 15
  10   1 15
   0   0 
